CLW04
Position Depot: Random
Horizon for Depot: Large
Position of customers: Cluster
Distribution of the demand: Medium
Width of time windows: Wide
Distribution of the service: Large

VEHICLE 
NUMBER 	 CAPACITY 
 7 	 	 84 
 
CUSTOMER
CUST NO. 	 XCOORD.  	 YCOORD. 	 DEMAND 	 READY TIME 	 DUE DATE 	 SERVICE TIME 
 0 	 	 365 	 	 867 	 	 0 	 	 0 	 	 3348 	 	 0 
  1 	 	 174 	 	 404 	 	 7 	 	 1503 	 	 1759 	 	 145 
  2 	 	 393 	 	 918 	 	 1 	 	 1661 	 	 2154 	 	 115 
  3 	 	 433 	 	 925 	 	 1 	 	 1351 	 	 1765 	 	 136 
  4 	 	 158 	 	 417 	 	 63 	 	 281 	 	 751 	 	 148 
  5 	 	 206 	 	 446 	 	 7 	 	 2837 	 	 3057 	 	 106 
  6 	 	 433 	 	 885 	 	 10 	 	 2866 	 	 3207 	 	 178 
  7 	 	 396 	 	 892 	 	 7 	 	 289 	 	 637 	 	 172 
  8 	 	 160 	 	 290 	 	 6 	 	 2956 	 	 3348 	 	 196 
  9 	 	 493 	 	 965 	 	 54 	 	 2201 	 	 2618 	 	 168 
  10 	 	 165 	 	 391 	 	 2 	 	 2141 	 	 2588 	 	 107 
  11 	 	 343 	 	 900 	 	 8 	 	 1100 	 	 1512 	 	 121 
  12 	 	 349 	 	 977 	 	 2 	 	 1462 	 	 1727 	 	 188 
  13 	 	 365 	 	 910 	 	 9 	 	 1588 	 	 2037 	 	 145 
  14 	 	 432 	 	 800 	 	 7 	 	 209 	 	 422 	 	 106 
  15 	 	 240 	 	 357 	 	 5 	 	 2876 	 	 3348 	 	 158 
  16 	 	 404 	 	 848 	 	 9 	 	 147 	 	 370 	 	 109 
  17 	 	 487 	 	 930 	 	 4 	 	 2006 	 	 2456 	 	 183 
  18 	 	 188 	 	 439 	 	 10 	 	 875 	 	 1241 	 	 155 
  19 	 	 363 	 	 931 	 	 65 	 	 2774 	 	 3004 	 	 192 
  20 	 	 522 	 	 928 	 	 5 	 	 1921 	 	 2229 	 	 123 
  21 	 	 436 	 	 855 	 	 9 	 	 812 	 	 1061 	 	 115 
  22 	 	 505 	 	 945 	 	 4 	 	 815 	 	 1173 	 	 103 
  23 	 	 251 	 	 846 	 	 4 	 	 383 	 	 753 	 	 150 
  24 	 	 84 	 	 428 	 	 1 	 	 268 	 	 573 	 	 178 
  25 	 	 99 	 	 505 	 	 10 	 	 815 	 	 1267 	 	 158 
  26 	 	 373 	 	 935 	 	 10 	 	 3136 	 	 3348 	 	 125 
  27 	 	 181 	 	 418 	 	 4 	 	 1305 	 	 1653 	 	 152 
  28 	 	 211 	 	 465 	 	 6 	 	 2799 	 	 3104 	 	 172 
  29 	 	 160 	 	 386 	 	 8 	 	 1691 	 	 2039 	 	 117 
  30 	 	 434 	 	 887 	 	 7 	 	 1711 	 	 2000 	 	 199 
  31 	 	 210 	 	 385 	 	 10 	 	 2528 	 	 2884 	 	 107 
  32 	 	 482 	 	 932 	 	 10 	 	 2256 	 	 2680 	 	 151 
  33 	 	 108 	 	 247 	 	 3 	 	 839 	 	 1047 	 	 192 
  34 	 	 486 	 	 947 	 	 77 	 	 2857 	 	 3148 	 	 103 
  35 	 	 408 	 	 941 	 	 5 	 	 1955 	 	 2318 	 	 145 
  36 	 	 559 	 	 923 	 	 75 	 	 948 	 	 1438 	 	 104 
  37 	 	 462 	 	 892 	 	 9 	 	 2999 	 	 3296 	 	 136 
  38 	 	 365 	 	 856 	 	 1 	 	 264 	 	 764 	 	 167 
  39 	 	 198 	 	 308 	 	 5 	 	 1022 	 	 1320 	 	 140 
  40 	 	 373 	 	 919 	 	 2 	 	 -22 	 	 247 	 	 146 
  41 	 	 174 	 	 387 	 	 9 	 	 1146 	 	 1398 	 	 174 
  42 	 	 109 	 	 407 	 	 5 	 	 2679 	 	 2927 	 	 160 
  43 	 	 412 	 	 927 	 	 4 	 	 198 	 	 425 	 	 140 
  44 	 	 420 	 	 901 	 	 2 	 	 1550 	 	 1900 	 	 110 
  45 	 	 373 	 	 932 	 	 2 	 	 848 	 	 1211 	 	 193 
  46 	 	 198 	 	 450 	 	 2 	 	 1522 	 	 1997 	 	 177 
  47 	 	 392 	 	 889 	 	 10 	 	 2700 	 	 3103 	 	 104 
  48 	 	 338 	 	 866 	 	 10 	 	 2367 	 	 2680 	 	 158 
  49 	 	 225 	 	 458 	 	 3 	 	 2499 	 	 2858 	 	 193 
  50 	 	 475 	 	 820 	 	 2 	 	 162 	 	 409 	 	 176 
 